1062,787
237,476
635,548
575,352
746,820
261,406
773,121
644,520
539,452
635,702
616,-8
575,300
761,446
201,406
558,237
753,354
1055,596
625,51
387,555
1137,258
1081,202
281,610
342,652
681,256
732,81
871,32
591,406
